5 5
0 24 3 64 2 93 1 25 4 6
2 1 1 87 0 33 4 14 3 63
2 56 3 62 0 28 4 29 1 23
4 44 2 38 3 49 0 43 1 10
3 27 1 8 4 68 0 85 2 85
-1
0 1 3 5
0 1 3 5
0 2 3 4 5
0 1 4 5
0 1 4 5
-2
35 210 319
1 184 247
147 195 265 244
50 245 240
41 245 315

351 5
0 7 12 23 18
6 21 3 14 19
5 10 2 16 24
20 1 11 9 17
15 22 8 13 4
